NAME          COPTPROB
OBJSENSE
  MIN
ROWS
 N  __OBJ___
 L  C5      
 L  C6      
 L  C7      
 L  C8      
 L  C10     
 L  C19     
 L  C20     
 L  C26     
 L  C28     
 L  C30     
 L  C31     
 L  C32     
 L  C33     
 L  C34     
 L  C35     
 L  C36     
 L  C37     
 L  C38     
 L  C39     
 L  C40     
 L  C41     
 L  C44     
 L  C46     
 L  C50     
 L  C51     
 L  C53     
 L  C55     
 L  C57     
 L  C58     
 L  C59     
 L  C64     
 L  C65     
 L  C70     
 L  C71     
 L  C73     
 L  C75     
 L  C78     
 L  C85     
 L  C87     
 L  C88     
 L  C89     
 L  C97     
 L  C98     
 L  C103    
 L  C104    
 L  C105    
 L  C108    
 L  C109    
 L  C112    
 L  C113    
 L  C116    
 L  C117    
 L  C118    
 L  C119    
 L  C123    
 L  C124    
 L  C125    
 L  C126    
 L  C127    
 L  C128    
 L  C129    
 L  C130    
 L  C132    
 L  C134    
 L  C135    
 L  C136    
 L  C138    
 L  C139    
 L  C141    
 L  C142    
 L  C144    
 L  C148    
 L  C153    
 L  C154    
 L  C156    
 L  C160    
 L  C162    
 L  C165    
 L  C166    
 L  C171    
 L  C172    
 L  C173    
 L  C175    
 L  C176    
 L  C177    
 L  C178    
 L  C179    
 L  C180    
 L  C181    
 L  C184    
 L  C186    
 L  C189    
 L  C190    
 L  C191    
 L  C192    
 L  C195    
 L  C196    
 L  C197    
 L  C198    
 L  C199    
 L  C200    
 L  C201    
 L  C203    
 L  C205    
 L  C206    
 L  C207    
 L  C209    
 L  C211    
 L  C214    
 L  C216    
 L  C217    
 L  C219    
 L  C220    
 L  C223    
 L  C225    
 L  C227    
 L  C230    
 L  C231    
 L  C233    
 L  C234    
 L  C235    
 L  C242    
 L  C243    
 L  C244    
 L  C248    
 L  C252    
 L  C253    
 L  C256    
 L  C258    
 L  C259    
 L  C261    
 L  C262    
 L  C265    
 L  C267    
 L  C268    
 L  C270    
 L  C271    
 L  C273    
 L  C274    
 L  C280    
 L  C283    
 L  C288    
 L  C290    
 L  C293    
 L  C294    
 L  C298    
 L  C300    
 L  C302    
 L  C303    
 L  C304    
 L  C305    
 L  C306    
 L  C307    
 L  C308    
 L  C309    
 L  C313    
 L  C314    
 L  C316    
 L  C317    
 L  C319    
 L  C320    
 L  C321    
 L  C322    
 L  C325    
 L  C326    
 L  C327    
 L  C329    
 L  C330    
 L  C334    
 L  C336    
 L  C337    
 L  C338    
 L  C339    
 L  C341    
 L  C343    
 L  C344    
 L  C346    
 L  C347    
 L  C349    
 L  C351    
 L  C352    
 L  C353    
 L  C356    
 L  C358    
 L  C360    
 L  C361    
 L  C362    
 L  C363    
 L  C364    
 L  C366    
 L  C368    
 L  C371    
 L  C372    
 L  C375    
 L  C376    
 L  C378    
 L  C379    
 L  C380    
 L  C381    
 L  C389    
 L  C392    
 L  C395    
 L  C396    
COLUMNS
    MARKER    'MARKER'                 'INTORG'
    x1        __OBJ___  568
    x1        C117      -1
    x1        C173      -1
    x2        __OBJ___  970
    x2        C30       -1
    x2        C153      -1
    x2        C267      -1
    x2        C352      -1
    x4        __OBJ___  38
    x4        C10       -1
    x4        C51       -1
    x4        C124      -1
    x4        C317      -1
    x4        C330      -1
    x6        __OBJ___  940
    x6        C162      -1
    x6        C198      -1
    x6        C199      -1
    x6        C337      -1
    x8        __OBJ___  207
    x8        C132      -1
    x8        C216      -1
    x10       __OBJ___  961
    x10       C88       -1
    x10       C109      -1
    x10       C233      -1
    x10       C379      -1
    x10       C380      -1
    x11       __OBJ___  947
    x11       C135      -1
    x11       C178      -1
    x11       C179      -1
    x11       C313      -1
    x13       __OBJ___  701
    x13       C108      -1
    x13       C258      -1
    x13       C329      -1
    x19       __OBJ___  168
    x19       C214      -1
    x19       C262      -1
    x21       __OBJ___  245
    x21       C116      -1
    x21       C211      -1
    x21       C338      -1
    x22       __OBJ___  151
    x22       C6        -1
    x22       C244      -1
    x22       C349      -1
    x22       C364      -1
    x23       __OBJ___  773
    x23       C50       -1
    x23       C207      -1
    x23       C356      -1
    x23       C389      -1
    x25       __OBJ___  749
    x25       C78       -1
    x25       C231      -1
    x26       __OBJ___  204
    x26       C8        -1
    x26       C64       -1
    x26       C119      -1
    x26       C139      -1
    x29       __OBJ___  529
    x29       C35       -1
    x29       C201      -1
    x29       C243      -1
    x29       C308      -1
    x29       C344      -1
    x30       __OBJ___  769
    x30       C103      -1
    x30       C309      -1
    x30       C371      -1
    x32       __OBJ___  524
    x32       C97       -1
    x32       C118      -1
    x34       __OBJ___  214
    x34       C39       -1
    x34       C105      -1
    x34       C172      -1
    x34       C186      -1
    x37       __OBJ___  650
    x37       C259      -1
    x37       C294      -1
    x37       C353      -1
    x38       __OBJ___  302
    x38       C37       -1
    x38       C38       -1
    x38       C223      -1
    x41       __OBJ___  992
    x41       C142      -1
    x41       C165      -1
    x41       C358      -1
    x41       C392      -1
    x43       __OBJ___  573
    x43       C19       -1
    x43       C346      -1
    x43       C361      -1
    x44       __OBJ___  362
    x44       C33       -1
    x44       C141      -1
    x44       C280      -1
    x46       __OBJ___  810
    x46       C85       -1
    x46       C113      -1
    x46       C192      -1
    x46       C200      -1
    x46       C256      -1
    x46       C375      -1
    x48       __OBJ___  598
    x48       C138      -1
    x48       C191      -1
    x48       C230      -1
    x48       C314      -1
    x48       C395      -1
    x53       __OBJ___  496
    x53       C36       -1
    x53       C57       -1
    x53       C176      -1
    x53       C261      -1
    x57       __OBJ___  785
    x57       C7        -1
    x57       C75       -1
    x57       C154      -1
    x57       C378      -1
    x59       __OBJ___  887
    x59       C34       -1
    x59       C123      -1
    x59       C248      -1
    x59       C325      -1
    x60       __OBJ___  232
    x60       C31       -1
    x60       C156      -1
    x60       C206      -1
    x60       C362      -1
    x60       C368      -1
    x61       __OBJ___  496
    x61       C190      -1
    x61       C372      -1
    x62       __OBJ___  322
    x62       C5        -1
    x62       C196      -1
    x62       C225      -1
    x62       C341      -1
    x66       __OBJ___  519
    x66       C112      -1
    x66       C125      -1
    x66       C130      -1
    x66       C242      -1
    x66       C288      -1
    x67       __OBJ___  305
    x67       C59       -1
    x67       C136      -1
    x67       C293      -1
    x69       __OBJ___  183
    x69       C87       -1
    x69       C274      -1
    x69       C339      -1
    x71       __OBJ___  156
    x71       C144      -1
    x71       C209      -1
    x71       C283      -1
    x73       __OBJ___  116
    x73       C181      -1
    x73       C252      -1
    x78       __OBJ___  653
    x78       C28       -1
    x78       C65       -1
    x78       C160      -1
    x80       __OBJ___  844
    x80       C73       -1
    x80       C89       -1
    x80       C321      -1
    x80       C336      -1
    x80       C343      -1
    x80       C347      -1
    x81       __OBJ___  808
    x81       C41       -1
    x81       C171      -1
    x81       C235      -1
    x81       C271      -1
    x81       C273      -1
    x82       __OBJ___  55
    x82       C148      -1
    x82       C363      -1
    x83       __OBJ___  205
    x83       C46       -1
    x83       C177      -1
    x83       C189      -1
    x89       __OBJ___  915
    x89       C58       -1
    x89       C134      -1
    x89       C197      -1
    x89       C306      -1
    x89       C319      -1
    x101      __OBJ___  338
    x101      C53       -1
    x101      C270      -1
    x101      C326      -1
    x103      __OBJ___  176
    x103      C40       -1
    x103      C139      -1
    x103      C211      -1
    x103      C329      -1
    x106      __OBJ___  405
    x106      C98       -1
    x106      C300      -1
    x106      C327      -1
    x106      C378      -1
    x108      __OBJ___  791
    x108      C5        -1
    x108      C19       -1
    x108      C172      -1
    x109      __OBJ___  835
    x109      C10       -1
    x109      C176      -1
    x109      C242      -1
    x109      C322      -1
    x109      C325      -1
    x110      __OBJ___  613
    x110      C308      -1
    x110      C380      -1
    x120      __OBJ___  903
    x120      C8        -1
    x120      C141      -1
    x120      C223      -1
    x120      C253      -1
    x120      C334      -1
    x124      __OBJ___  914
    x124      C59       -1
    x124      C97       -1
    x124      C129      -1
    x124      C338      -1
    x125      __OBJ___  253
    x125      C211      -1
    x125      C234      -1
    x126      __OBJ___  693
    x126      C135      -1
    x126      C154      -1
    x126      C274      -1
    x127      __OBJ___  981
    x127      C5        -1
    x127      C197      -1
    x127      C304      -1
    x127      C314      -1
    x130      __OBJ___  469
    x130      C40       -1
    x130      C89       -1
    x130      C223      -1
    x130      C259      -1
    x134      __OBJ___  683
    x134      C201      -1
    x134      C302      -1
    x134      C316      -1
    x134      C364      -1
    x135      __OBJ___  67
    x135      C35       -1
    x135      C124      -1
    x135      C389      -1
    x137      __OBJ___  691
    x137      C6        -1
    x137      C51       -1
    x137      C126      -1
    x137      C171      -1
    x137      C201      -1
    x137      C271      -1
    x137      C364      -1
    x138      __OBJ___  442
    x138      C135      -1
    x138      C166      -1
    x139      __OBJ___  453
    x139      C125      -1
    x139      C175      -1
    x139      C268      -1
    x140      __OBJ___  57
    x140      C207      -1
    x140      C303      -1
    x140      C313      -1
    x141      __OBJ___  302
    x141      C307      -1
    x141      C336      -1
    x143      __OBJ___  119
    x143      C186      -1
    x143      C320      -1
    x145      __OBJ___  137
    x145      C51       -1
    x145      C336      -1
    x146      __OBJ___  387
    x146      C32       -1
    x146      C128      -1
    x146      C184      -1
    x146      C230      -1
    x146      C294      -1
    x147      __OBJ___  117
    x147      C32       -1
    x147      C98       -1
    x147      C371      -1
    x148      __OBJ___  802
    x148      C197      -1
    x148      C283      -1
    x148      C339      -1
    x149      __OBJ___  682
    x149      C34       -1
    x149      C35       -1
    x149      C253      -1
    x150      __OBJ___  50
    x150      C57       -1
    x150      C300      -1
    x150      C346      -1
    x151      __OBJ___  324
    x151      C50       -1
    x151      C55       -1
    x153      __OBJ___  738
    x153      C73       -1
    x153      C261      -1
    x153      C306      -1
    x153      C339      -1
    x157      __OBJ___  455
    x157      C283      -1
    x157      C392      -1
    x162      __OBJ___  607
    x162      C28       -1
    x162      C125      -1
    x165      __OBJ___  453
    x165      C87       -1
    x165      C327      -1
    x165      C338      -1
    x166      __OBJ___  872
    x166      C205      -1
    x166      C261      -1
    x166      C361      -1
    x166      C381      -1
    x173      __OBJ___  572
    x173      C78       -1
    x173      C128      -1
    x174      __OBJ___  621
    x174      C5        -1
    x174      C71       -1
    x174      C206      -1
    x174      C233      -1
    x175      __OBJ___  36
    x175      C256      -1
    x175      C265      -1
    x181      __OBJ___  690
    x181      C171      -1
    x181      C217      -1
    x181      C338      -1
    x182      __OBJ___  792
    x182      C206      -1
    x182      C347      -1
    x185      __OBJ___  283
    x185      C37       -1
    x185      C50       -1
    x185      C117      -1
    x187      __OBJ___  414
    x187      C344      -1
    x187      C353      -1
    x187      C363      -1
    x188      __OBJ___  63
    x188      C165      -1
    x188      C175      -1
    x194      __OBJ___  45
    x194      C70       -1
    x194      C207      -1
    x198      __OBJ___  169
    x198      C30       -1
    x198      C211      -1
    x198      C298      -1
    x198      C344      -1
    x200      __OBJ___  180
    x200      C26       -1
    x200      C98       -1
    x200      C154      -1
    x201      __OBJ___  685
    x201      C7        -1
    x201      C88       -1
    x201      C244      -1
    x205      __OBJ___  632
    x205      C33       -1
    x205      C141      -1
    x205      C180      -1
    x205      C274      -1
    x210      __OBJ___  36
    x210      C40       -1
    x216      __OBJ___  530
    x216      C44       -1
    x216      C220      -1
    x216      C235      -1
    x216      C307      -1
    x218      __OBJ___  482
    x218      C125      -1
    x218      C364      -1
    x224      __OBJ___  176
    x224      C227      -1
    x224      C313      -1
    x225      __OBJ___  543
    x225      C19       -1
    x225      C180      -1
    x226      __OBJ___  180
    x226      C64       -1
    x226      C116      -1
    x226      C349      -1
    x227      __OBJ___  713
    x227      C5        -1
    x227      C36       -1
    x227      C112      -1
    x227      C142      -1
    x227      C349      -1
    x228      __OBJ___  236
    x228      C220      -1
    x228      C258      -1
    x228      C259      -1
    x228      C293      -1
    x228      C306      -1
    x229      __OBJ___  340
    x229      C51       -1
    x229      C105      -1
    x229      C123      -1
    x235      __OBJ___  688
    x235      C33       -1
    x235      C39       -1
    x235      C317      -1
    x235      C343      -1
    x236      __OBJ___  227
    x236      C88       -1
    x236      C104      -1
    x236      C132      -1
    x237      __OBJ___  665
    x237      C139      -1
    x237      C273      -1
    x238      __OBJ___  747
    x238      C314      -1
    x238      C349      -1
    x240      __OBJ___  153
    x240      C20       -1
    x240      C98       -1
    x242      __OBJ___  135
    x242      C184      -1
    x242      C271      -1
    x244      __OBJ___  517
    x244      C321      -1
    x244      C327      -1
    x246      __OBJ___  873
    x246      C184      -1
    x246      C225      -1
    x246      C343      -1
    x248      __OBJ___  111
    x248      C20       -1
    x248      C37       -1
    x248      C252      -1
    x249      __OBJ___  932
    x249      C41       -1
    x249      C104      -1
    x249      C119      -1
    x249      C180      -1
    x249      C231      -1
    x250      __OBJ___  155
    x250      C36       -1
    x250      C129      -1
    x250      C195      -1
    x250      C209      -1
    x250      C280      -1
    x251      __OBJ___  200
    x251      C180      -1
    x251      C227      -1
    x251      C290      -1
    x251      C319      -1
    x251      C330      -1
    x252      __OBJ___  32
    x252      C71       -1
    x252      C113      -1
    x252      C293      -1
    x252      C294      -1
    x252      C313      -1
    x252      C360      -1
    x253      __OBJ___  218
    x253      C89       -1
    x253      C203      -1
    x253      C219      -1
    x253      C364      -1
    x256      __OBJ___  131
    x256      C268      -1
    x256      C336      -1
    x258      __OBJ___  459
    x258      C6        -1
    x258      C305      -1
    x258      C322      -1
    x261      __OBJ___  505
    x261      C33       -1
    x261      C125      -1
    x261      C195      -1
    x263      __OBJ___  27
    x263      C59       -1
    x263      C211      -1
    x263      C216      -1
    x263      C300      -1
    x265      __OBJ___  218
    x265      C319      -1
    x265      C320      -1
    x265      C360      -1
    x266      __OBJ___  172
    x266      C89       -1
    x266      C112      -1
    x268      __OBJ___  36
    x268      C36       -1
    x268      C176      -1
    x268      C214      -1
    x268      C219      -1
    x269      __OBJ___  965
    x269      C97       -1
    x269      C356      -1
    x270      __OBJ___  60
    x270      C51       -1
    x270      C134      -1
    x270      C199      -1
    x271      __OBJ___  237
    x271      C87       -1
    x271      C104      -1
    x271      C118      -1
    x271      C235      -1
    x271      C389      -1
    x272      __OBJ___  686
    x272      C189      -1
    x272      C267      -1
    x272      C376      -1
    x278      __OBJ___  683
    x278      C41       -1
    x278      C217      -1
    x278      C230      -1
    x280      __OBJ___  367
    x280      C358      -1
    x280      C361      -1
    x281      __OBJ___  87
    x281      C38       -1
    x281      C44       -1
    x282      __OBJ___  861
    x282      C349      -1
    x282      C380      -1
    x282      C396      -1
    x283      __OBJ___  883
    x283      C192      -1
    x283      C303      -1
    x283      C380      -1
    x285      __OBJ___  685
    x285      C153      -1
    x285      C171      -1
    x285      C329      -1
    x286      __OBJ___  200
    x286      C305      -1
    x286      C334      -1
    x289      __OBJ___  761
    x289      C191      -1
    x289      C305      -1
    x289      C362      -1
    x290      __OBJ___  434
    x290      C26       -1
    x290      C53       -1
    x290      C148      -1
    x290      C181      -1
    x290      C372      -1
    x291      __OBJ___  250
    x291      C178      -1
    x291      C201      -1
    x291      C294      -1
    x292      __OBJ___  529
    x292      C65       -1
    x292      C105      -1
    x292      C316      -1
    x294      __OBJ___  61
    x294      C283      -1
    x294      C327      -1
    x295      __OBJ___  380
    x295      C65       -1
    x295      C378      -1
    x297      __OBJ___  224
    x297      C105      -1
    x297      C139      -1
    x297      C144      -1
    x298      __OBJ___  33
    x298      C26       -1
    x298      C59       -1
    x298      C211      -1
    x298      C366      -1
    x301      __OBJ___  991
    x301      C98       -1
    x301      C123      -1
    x301      C124      -1
    x301      C196      -1
    x301      C368      -1
    x302      __OBJ___  792
    x302      C270      -1
    x302      C341      -1
    x302      C351      -1
    x304      __OBJ___  169
    x304      C71       -1
    x304      C117      -1
    x304      C313      -1
    x304      C346      -1
    x305      __OBJ___  36
    x305      C288      -1
    x305      C363      -1
    x306      __OBJ___  629
    x306      C35       -1
    x306      C203      -1
    x306      C205      -1
    x306      C298      -1
    x311      __OBJ___  739
    x311      C156      -1
    x311      C162      -1
    x311      C356      -1
    x314      __OBJ___  379
    x314      C126      -1
    x314      C127      -1
    x314      C233      -1
    x314      C375      -1
    x315      __OBJ___  342
    x315      C139      -1
    x315      C176      -1
    x315      C234      -1
    x316      __OBJ___  187
    x316      C41       -1
    x316      C166      -1
    x316      C200      -1
    x316      C309      -1
    x317      __OBJ___  590
    x317      C85       -1
    x317      C341      -1
    x318      __OBJ___  426
    x318      C135      -1
    x318      C366      -1
    x320      __OBJ___  474
    x320      C7        -1
    x320      C46       -1
    x320      C142      -1
    x320      C290      -1
    x320      C308      -1
    x321      __OBJ___  228
    x321      C351      -1
    x321      C395      -1
    x322      __OBJ___  612
    x322      C123      -1
    x322      C197      -1
    x323      __OBJ___  523
    x323      C97       -1
    x324      __OBJ___  522
    x324      C44       -1
    x324      C173      -1
    x324      C243      -1
    x325      __OBJ___  178
    x325      C8        -1
    x325      C376      -1
    x328      __OBJ___  393
    x328      C104      -1
    x328      C201      -1
    x329      __OBJ___  537
    x329      C192      -1
    x329      C256      -1
    x330      __OBJ___  160
    x330      C46       -1
    x330      C361      -1
    x336      __OBJ___  146
    x336      C46       -1
    x336      C116      -1
    x336      C127      -1
    x337      __OBJ___  250
    x337      C138      -1
    x337      C262      -1
    x337      C379      -1
    x337      C396      -1
    x339      __OBJ___  834
    x339      C108      -1
    x339      C130      -1
    x339      C368      -1
    x340      __OBJ___  361
    x340      C7        -1
    x340      C177      -1
    x340      C352      -1
    x340      C358      -1
    x347      __OBJ___  203
    x347      C178      -1
    x347      C223      -1
    x348      __OBJ___  429
    x348      C44       -1
    x348      C73       -1
    x348      C307      -1
    x348      C368      -1
    x350      __OBJ___  142
    x350      C105      -1
    x350      C217      -1
    x350      C290      -1
    x352      __OBJ___  142
    x352      C198      -1
    x352      C322      -1
    x352      C344      -1
    x352      C351      -1
    x354      __OBJ___  183
    x354      C181      -1
    x354      C290      -1
    x354      C381      -1
    x355      __OBJ___  696
    x355      C103      -1
    x355      C125      -1
    x355      C327      -1
    x356      __OBJ___  673
    x356      C33       -1
    x356      C308      -1
    x356      C381      -1
    x357      __OBJ___  439
    x357      C8        -1
    x357      C142      -1
    x357      C262      -1
    x357      C267      -1
    x358      __OBJ___  319
    x358      C308      -1
    x358      C358      -1
    x363      __OBJ___  561
    x363      C8        -1
    x363      C165      -1
    x363      C302      -1
    x364      __OBJ___  550
    x364      C78       -1
    x364      C125      -1
    x367      __OBJ___  595
    x367      C190      -1
    x367      C253      -1
    x367      C344      -1
    x370      __OBJ___  375
    x370      C30       -1
    x370      C58       -1
    x370      C70       -1
    x370      C136      -1
    x370      C184      -1
    x370      C261      -1
    x370      C262      -1
    x371      __OBJ___  703
    x371      C223      -1
    x371      C274      -1
    x371      C337      -1
    x372      __OBJ___  563
    x372      C55       -1
    x372      C142      -1
    x372      C344      -1
    x374      __OBJ___  741
    x374      C31       -1
    x374      C108      -1
    x374      C171      -1
    x376      __OBJ___  881
    x376      C31       -1
    x376      C175      -1
    x376      C380      -1
    x377      __OBJ___  161
    x377      C248      -1
    x377      C258      -1
    x377      C309      -1
    x377      C381      -1
    x378      __OBJ___  497
    x378      C65       -1
    x378      C225      -1
    x378      C283      -1
    x378      C307      -1
    x379      __OBJ___  245
    x379      C98       -1
    x379      C293      -1
    x379      C349      -1
    x379      C360      -1
    x380      __OBJ___  806
    x380      C33       -1
    x380      C196      -1
    x380      C223      -1
    x380      C233      -1
    x380      C265      -1
    x382      __OBJ___  546
    x382      C20       -1
    x382      C65       -1
    x382      C171      -1
    x387      __OBJ___  593
    x387      C75       -1
    x387      C109      -1
    x391      __OBJ___  716
    x391      C78       -1
    x391      C302      -1
    x391      C326      -1
    x395      __OBJ___  69
    x395      C32       -1
    x395      C176      -1
    x397      __OBJ___  664
    x397      C179      -1
    x397      C259      -1
    x397      C317      -1
    x398      __OBJ___  8
    x398      C38       -1
    x398      C242      -1
    x398      C271      -1
    x400      __OBJ___  45
    x400      C160      -1
    x400      C304      -1
    MARKER    'MARKER'                 'INTEND'
RHS
    RHS       __OBJ___  -13519
    RHS       C5        -1
    RHS       C6        -1
    RHS       C7        -1
    RHS       C8        -1
    RHS       C10       -1
    RHS       C19       -1
    RHS       C20       -1
    RHS       C26       -1
    RHS       C28       -1
    RHS       C30       -1
    RHS       C31       -1
    RHS       C32       -1
    RHS       C33       -1
    RHS       C34       -1
    RHS       C35       -1
    RHS       C36       -1
    RHS       C37       -1
    RHS       C38       -1
    RHS       C39       -1
    RHS       C40       -1
    RHS       C41       -1
    RHS       C44       -1
    RHS       C46       -1
    RHS       C50       -1
    RHS       C51       -1
    RHS       C53       -1
    RHS       C55       -1
    RHS       C57       -1
    RHS       C58       -1
    RHS       C59       -1
    RHS       C64       -1
    RHS       C65       -1
    RHS       C70       -1
    RHS       C71       -1
    RHS       C73       -1
    RHS       C75       -1
    RHS       C78       -1
    RHS       C85       -1
    RHS       C87       -1
    RHS       C88       -1
    RHS       C89       -1
    RHS       C97       -1
    RHS       C98       -1
    RHS       C103      -1
    RHS       C104      -1
    RHS       C105      -1
    RHS       C108      -1
    RHS       C109      -1
    RHS       C112      -1
    RHS       C113      -1
    RHS       C116      -1
    RHS       C117      -1
    RHS       C118      -1
    RHS       C119      -1
    RHS       C123      -1
    RHS       C124      -1
    RHS       C125      -1
    RHS       C126      -1
    RHS       C127      -1
    RHS       C128      -1
    RHS       C129      -1
    RHS       C130      -1
    RHS       C132      -1
    RHS       C134      -1
    RHS       C135      -1
    RHS       C136      -1
    RHS       C138      -1
    RHS       C139      -1
    RHS       C141      -1
    RHS       C142      -1
    RHS       C144      -1
    RHS       C148      -1
    RHS       C153      -1
    RHS       C154      -1
    RHS       C156      -1
    RHS       C160      -1
    RHS       C162      -1
    RHS       C165      -1
    RHS       C166      -1
    RHS       C171      -1
    RHS       C172      -1
    RHS       C173      -1
    RHS       C175      -1
    RHS       C176      -1
    RHS       C177      -1
    RHS       C178      -1
    RHS       C179      -1
    RHS       C180      -1
    RHS       C181      -1
    RHS       C184      -1
    RHS       C186      -1
    RHS       C189      -1
    RHS       C190      -1
    RHS       C191      -1
    RHS       C192      -1
    RHS       C195      -1
    RHS       C196      -1
    RHS       C197      -1
    RHS       C198      -1
    RHS       C199      -1
    RHS       C200      -1
    RHS       C201      -1
    RHS       C203      -1
    RHS       C205      -1
    RHS       C206      -1
    RHS       C207      -1
    RHS       C209      -1
    RHS       C211      -1
    RHS       C214      -1
    RHS       C216      -1
    RHS       C217      -1
    RHS       C219      -1
    RHS       C220      -1
    RHS       C223      -1
    RHS       C225      -1
    RHS       C227      -1
    RHS       C230      -1
    RHS       C231      -1
    RHS       C233      -1
    RHS       C234      -1
    RHS       C235      -1
    RHS       C242      -1
    RHS       C243      -1
    RHS       C244      -1
    RHS       C248      -1
    RHS       C252      -1
    RHS       C253      -1
    RHS       C256      -1
    RHS       C258      -1
    RHS       C259      -1
    RHS       C261      -1
    RHS       C262      -1
    RHS       C265      -1
    RHS       C267      -1
    RHS       C268      -1
    RHS       C270      -1
    RHS       C271      -1
    RHS       C273      -1
    RHS       C274      -1
    RHS       C280      -1
    RHS       C283      -1
    RHS       C288      -1
    RHS       C290      -1
    RHS       C293      -1
    RHS       C294      -1
    RHS       C298      -1
    RHS       C300      -1
    RHS       C302      -1
    RHS       C303      -1
    RHS       C304      -1
    RHS       C305      -1
    RHS       C306      -1
    RHS       C307      -1
    RHS       C308      -1
    RHS       C309      -1
    RHS       C313      -1
    RHS       C314      -1
    RHS       C316      -1
    RHS       C317      -1
    RHS       C319      -1
    RHS       C320      -1
    RHS       C321      -1
    RHS       C322      -1
    RHS       C325      -1
    RHS       C326      -1
    RHS       C327      -1
    RHS       C329      -1
    RHS       C330      -1
    RHS       C334      -1
    RHS       C336      -1
    RHS       C337      -1
    RHS       C338      -1
    RHS       C339      -1
    RHS       C341      -1
    RHS       C343      -1
    RHS       C344      -1
    RHS       C346      -1
    RHS       C347      -1
    RHS       C349      -1
    RHS       C351      -1
    RHS       C352      -1
    RHS       C353      -1
    RHS       C356      -1
    RHS       C358      -1
    RHS       C360      -1
    RHS       C361      -1
    RHS       C362      -1
    RHS       C363      -1
    RHS       C364      -1
    RHS       C366      -1
    RHS       C368      -1
    RHS       C371      -1
    RHS       C372      -1
    RHS       C375      -1
    RHS       C376      -1
    RHS       C378      -1
    RHS       C379      -1
    RHS       C380      -1
    RHS       C381      -1
    RHS       C389      -1
    RHS       C392      -1
    RHS       C395      -1
    RHS       C396      -1
BOUNDS
 UP BOUND     x1        1
 UP BOUND     x2        1
 UP BOUND     x4        1
 UP BOUND     x6        1
 UP BOUND     x8        1
 UP BOUND     x10       1
 UP BOUND     x11       1
 UP BOUND     x13       1
 UP BOUND     x19       1
 UP BOUND     x21       1
 UP BOUND     x22       1
 UP BOUND     x23       1
 UP BOUND     x25       1
 UP BOUND     x26       1
 UP BOUND     x29       1
 UP BOUND     x30       1
 UP BOUND     x32       1
 UP BOUND     x34       1
 UP BOUND     x37       1
 UP BOUND     x38       1
 UP BOUND     x41       1
 UP BOUND     x43       1
 UP BOUND     x44       1
 UP BOUND     x46       1
 UP BOUND     x48       1
 UP BOUND     x53       1
 UP BOUND     x57       1
 UP BOUND     x59       1
 UP BOUND     x60       1
 UP BOUND     x61       1
 UP BOUND     x62       1
 UP BOUND     x66       1
 UP BOUND     x67       1
 UP BOUND     x69       1
 UP BOUND     x71       1
 UP BOUND     x73       1
 UP BOUND     x78       1
 UP BOUND     x80       1
 UP BOUND     x81       1
 UP BOUND     x82       1
 UP BOUND     x83       1
 UP BOUND     x89       1
 UP BOUND     x101      1
 UP BOUND     x103      1
 UP BOUND     x106      1
 UP BOUND     x108      1
 UP BOUND     x109      1
 UP BOUND     x110      1
 UP BOUND     x120      1
 UP BOUND     x124      1
 UP BOUND     x125      1
 UP BOUND     x126      1
 UP BOUND     x127      1
 UP BOUND     x130      1
 UP BOUND     x134      1
 UP BOUND     x135      1
 UP BOUND     x137      1
 UP BOUND     x138      1
 UP BOUND     x139      1
 UP BOUND     x140      1
 UP BOUND     x141      1
 UP BOUND     x143      1
 UP BOUND     x145      1
 UP BOUND     x146      1
 UP BOUND     x147      1
 UP BOUND     x148      1
 UP BOUND     x149      1
 UP BOUND     x150      1
 UP BOUND     x151      1
 UP BOUND     x153      1
 UP BOUND     x157      1
 UP BOUND     x162      1
 UP BOUND     x165      1
 UP BOUND     x166      1
 UP BOUND     x173      1
 UP BOUND     x174      1
 UP BOUND     x175      1
 UP BOUND     x181      1
 UP BOUND     x182      1
 UP BOUND     x185      1
 UP BOUND     x187      1
 UP BOUND     x188      1
 UP BOUND     x194      1
 UP BOUND     x198      1
 UP BOUND     x200      1
 UP BOUND     x201      1
 UP BOUND     x205      1
 UP BOUND     x210      1
 UP BOUND     x216      1
 UP BOUND     x218      1
 UP BOUND     x224      1
 UP BOUND     x225      1
 UP BOUND     x226      1
 UP BOUND     x227      1
 UP BOUND     x228      1
 UP BOUND     x229      1
 UP BOUND     x235      1
 UP BOUND     x236      1
 UP BOUND     x237      1
 UP BOUND     x238      1
 UP BOUND     x240      1
 UP BOUND     x242      1
 UP BOUND     x244      1
 UP BOUND     x246      1
 UP BOUND     x248      1
 UP BOUND     x249      1
 UP BOUND     x250      1
 UP BOUND     x251      1
 UP BOUND     x252      1
 UP BOUND     x253      1
 UP BOUND     x256      1
 UP BOUND     x258      1
 UP BOUND     x261      1
 UP BOUND     x263      1
 UP BOUND     x265      1
 UP BOUND     x266      1
 UP BOUND     x268      1
 UP BOUND     x269      1
 UP BOUND     x270      1
 UP BOUND     x271      1
 UP BOUND     x272      1
 UP BOUND     x278      1
 UP BOUND     x280      1
 UP BOUND     x281      1
 UP BOUND     x282      1
 UP BOUND     x283      1
 UP BOUND     x285      1
 UP BOUND     x286      1
 UP BOUND     x289      1
 UP BOUND     x290      1
 UP BOUND     x291      1
 UP BOUND     x292      1
 UP BOUND     x294      1
 UP BOUND     x295      1
 UP BOUND     x297      1
 UP BOUND     x298      1
 UP BOUND     x301      1
 UP BOUND     x302      1
 UP BOUND     x304      1
 UP BOUND     x305      1
 UP BOUND     x306      1
 UP BOUND     x311      1
 UP BOUND     x314      1
 UP BOUND     x315      1
 UP BOUND     x316      1
 UP BOUND     x317      1
 UP BOUND     x318      1
 UP BOUND     x320      1
 UP BOUND     x321      1
 UP BOUND     x322      1
 UP BOUND     x323      1
 UP BOUND     x324      1
 UP BOUND     x325      1
 UP BOUND     x328      1
 UP BOUND     x329      1
 UP BOUND     x330      1
 UP BOUND     x336      1
 UP BOUND     x337      1
 UP BOUND     x339      1
 UP BOUND     x340      1
 UP BOUND     x347      1
 UP BOUND     x348      1
 UP BOUND     x350      1
 UP BOUND     x352      1
 UP BOUND     x354      1
 UP BOUND     x355      1
 UP BOUND     x356      1
 UP BOUND     x357      1
 UP BOUND     x358      1
 UP BOUND     x363      1
 UP BOUND     x364      1
 UP BOUND     x367      1
 UP BOUND     x370      1
 UP BOUND     x371      1
 UP BOUND     x372      1
 UP BOUND     x374      1
 UP BOUND     x376      1
 UP BOUND     x377      1
 UP BOUND     x378      1
 UP BOUND     x379      1
 UP BOUND     x380      1
 UP BOUND     x382      1
 UP BOUND     x387      1
 UP BOUND     x391      1
 UP BOUND     x395      1
 UP BOUND     x397      1
 UP BOUND     x398      1
 UP BOUND     x400      1
ENDATA
